100 500 200 500 10 100
12 467
58 279
39 469
36 221
90 339
18 247
89 360
50 240
38 253
21 223
28 500
31 315
72 444
28 306
13 418
74 431
97 385
71 291
92 398
95 481
52 368
58 426
44 228
91 498
70 262
29 479
89 312
16 399
63 430
32 385
67 373
52 482
80 223
14 310
72 232
70 406
28 318
16 376
42 497
87 428
62 292
53 218
73 449
27 408
100 371
72 475
61 306
46 500
35 427
66 449
66 400
74 307
69 384
62 262
95 305
12 337
18 344
23 250
31 220
33 369
97 500
50 384
18 248
52 333
91 442
58 331
59 384
57 256
65 420
82 346
20 256
69 372
55 286
26 340
93 329
97 447
98 301
10 383
86 463
30 471
76 245
86 443
62 238
14 447
67 215
93 381
32 224
22 319
60 373
53 366
95 417
95 279
12 392
78 213
63 376
27 456
38 284
25 249
61 295
34 479
